32      4       
7       15      13      13      
0       0       0       0       0       3       2       3       4       
3       0       0       0       10      3       8       13      14      
7       0       0       5       0       3       5       6       9       
5       0       0       0       6       3       14      17      18      
2       0       10      0       0       3       10      11      12      
3       0       0       8       0       3       7       20      22      
3       0       0       0       10      2       10      17      
8       0       0       0       1       3       9       15      16      
3       0       0       2       0       3       24      29      30      
2       0       0       0       6       3       13      14      25      
2       4       0       0       0       2       16      17      
1       0       0       0       9       3       15      16      23      
4       0       6       0       0       3       15      27      28      
5       0       3       0       0       3       19      23      24      
7       0       0       0       7       2       19      26      
6       0       0       0       3       2       18      24      
8       0       0       5       0       3       19      21      23      
1       0       0       10      0       3       20      21      22      
2       0       0       0       3       1       29      
6       0       0       2       0       3       26      28      31      
6       0       0       1       0       1       25      
9       0       10      0       0       1       25      
5       0       1       0       0       2       27      28      
5       0       0       0       6       1       27      
3       7       0       0       0       3       26      30      31      
6       0       5       0       0       1       29      
9       0       0       0       10      1       31      
10      0       0       10      0       1       30      
3       0       0       6       0       1       32      
6       0       0       6       0       1       32      
3       0       5       0       0       1       32      
0       0       0       0       0       0       